NAME: random75
TYPE: TSP
DIMENSION: 75
EDGE_WEIGHT_TYPE: EXPLICIT
EDGE_WEIGHT_FORMAT: FULL_MATRIX
EDGE_WEIGHT_SECTION
0 605 605 605 605 605 605 39 34 605 605 605 605 605 38 605 605 605 605 605 605 38 605 20 605 39 605 605 29 605 605 605 605 605 605 605 37 23 605 605 22 605 2 18 605 605 28 40 605 47 605 28 605 605 45 34 605 14 605 605 605 34 605 605 21 605 605 605 605 605 605 605 19 605 605
605 0 605 605 51 605 26 605 605 605 605 605 15 26 605 605 605 605 605 21 605 605 605 605 605 605 605 605 605 1 605 605 40 605 605 605 605 605 605 605 605 605 605 605 17 605 605 605 605 605 605 605 605 605 605 605 605 605 605 605 605 605 605 605 605 33 22 9 605 605 605 605 605 605 26
605 605 0 605 605 13 605 605 605 605 605 605 605 18 605 605 15 605 605 605 605 605 29 605 605 605 13 605 605 605 13 26 605 14 10 21 24 605 605 605 605 605 605 605 605 17 605 605 6 605 15 21 23 605 605 605 605 605 30 15 605 605 39 605 35 605 605 34 8 605 27 23 605 605 25
605 605 605 0 37 605 605 605 605 11 605 34 605 605 605 5 605 37 28 605 21 605 605 605 605 605 605 32 605 605 605 33 605 605 605 31 35 605 28 10 605 605 605 605 605 605 605 605 605 605 36 605 605 22 605 605 12 605 605 37 15 605 12 21 605 605 605 605 605 605 605 605 605 26 605
605 51 605 37 0 605 605 605 605 28 605 605 38 605 605 31 605 605 29 605 39 605 605 605 605 605 605 18 605 51 605 24 605 605 605 46 605 605 605 34 605 20 605 605 35 33 605 605 605 605 605 605 605 605 605 605 46 605 605 35 49 605 29 605 605 26 605 48 605 605 605 29 605 605 605
605 605 13 605 605 0 605 605 605 605 605 605 605 13 605 605 15 605 605 31 605 605 605 605 605 605 23 21 605 605 5 16 605 24 14 605 605 605 605 605 605 18 605 605 30 8 605 605 18 605 20 605 31 605 605 605 605 605 605 10 605 605 34 605 605 13 605 26 13 605 605 10 605 605 24
605 26 605 605 605 605 0 605 605 605 53 605 605 16 605 605 14 605 605 6 605 605 26 605 36 605 21 605 605 28 605 605 14 605 605 605 605 605 605 605 605 605 605 605 605 605 605 605 605 605 605 605 17 605 605 605 605 605 605 605 605 605 605 605 605 605 8 19 605 25 605 34 605 605 4
39 605 605 605 605 605 605 0 18 605 605 3 605 605 605 605 605 20 605 605 54 605 605 19 605 25 605 605 16 605 605 605 605 605 605 33 30 605 13 605 36 605 605 22 605 605 13 16 605 28 605 605 605 16 27 605 24 605 605 605 36 605 605 15 605 605 605 605 605 605 605 605 605 10 605
34 605 605 605 605 605 605 18 0 605 605 20 605 605 605 605 605 28 605 605 605 605 605 22 605 8 605 605 6 605 605 605 605 605 605 605 605 605 605 605 605 605 36 24 605 605 22 6 605 14 605 605 605 605 13 68 605 49 605 605 605 605 605 605 605 605 605 605 605 605 605 605 605 605 605
605 605 605 11 28 605 605 605 605 0 605 605 605 605 605 6 605 46 18 605 16 605 605 605 605 605 605 29 605 605 605 32 605 605 605 37 605 605 605 6 605 36 605 605 59 605 605 605 605 605 605 605 605 605 605 605 23 605 605 38 21 605 14 605 605 605 605 605 605 605 605 605 605 605 605
605 605 605 605 605 605 53 605 605 605 0 605 605 605 8 605 605 605 605 605 605 16 27 605 17 605 605 605 605 605 605 605 39 40 605 605 605 21 605 605 605 605 605 605 605 605 605 605 605 605 605 41 37 605 605 17 605 29 21 605 605 11 605 605 28 605 59 605 605 28 27 605 605 605 605
605 605 605 34 605 605 605 3 20 605 605 0 605 605 605 605 605 19 605 605 52 605 605 21 605 605 605 605 18 605 605 605 605 605 605 33 29 605 11 43 37 605 605 24 605 605 14 18 605 29 38 42 605 14 29 605 22 605 605 605 33 605 605 13 605 605 605 605 605 605 605 605 605 8 605
605 15 605 605 38 605 605 605 605 605 605 605 0 29 605 605 605 605 605 33 605 605 605 605 605 605 605 34 605 14 605 35 605 605 605 605 605 605 605 605 605 27 605 605 3 605 605 605 605 605 605 605 605 605 605 605 605 605 605 605 605 605 55 605 605 25 34 17 605 605 605 26 605 605 605
605 26 18 605 605 13 16 605 605 605 605 605 29 0 605 605 6 605 605 18 605 605 605 605 605 605 19 605 605 605 18 28 24 21 10 605 605 605 605 605 605 27 605 605 27 21 605 605 605 605 605 605 23 605 605 605 605 605 605 23 605 605 605 605 605 21 21 16 11 34 605 19 605 605 12
38 605 605 605 605 605 605 605 605 605 8 605 605 605 0 605 605 605 605 605 605 20 605 605 24 605 605 605 605 605 605 605 605 605 605 605 605 16 605 605 605 605 605 605 605 605 605 605 605 605 605 605 605 605 605 9 605 24 24 605 605 4 605 605 25 605 66 605 605 605 605 605 605 605 605
605 605 605 5 31 605 605 605 605 6 605 605 605 605 605 0 605 42 24 605 21 605 605 605 605 605 605 28 605 605 605 30 605 605 605 32 605 605 33 9 605 36 605 605 605 605 605 605 605 605 605 605 605 26 605 605 17 605 605 35 19 605 10 605 605 605 605 605 605 605 605 605 605 605 605
605 605 15 605 605 15 14 605 605 605 605 605 605 6 605 605 0 605 605 18 605 605 27 605 605 605 13 605 605 605 605 605 19 15 6 605 605 605 605 605 605 605 605 605 605 605 605 605 21 605 605 605 17 605 605 605 605 605 34 605 605 605 605 605 605 26 21 21 7 28 27 23 605 605 10
605 605 605 37 605 605 605 20 28 46 605 19 605 605 605 42 605 0 59 605 47 605 605 39 605 31 605 605 31 605 605 605 605 605 605 605 46 605 11 43 605 605 605 605 605 605 33 23 605 28 605 605 605 26 29 92 29 605 605 605 28 605 46 24 605 605 605 605 605 605 605 605 605 19 605
605 605 605 28 29 605 605 605 605 18 605 605 605 605 605 24 605 59 0 605 13 605 605 605 605 605 605 39 605 605 605 44 605 605 605 605 605 605 54 18 605 45 605 605 605 605 605 605 605 605 605 605 605 605 605 605 40 605 605 605 31 605 31 605 605 605 605 605 605 605 605 605 605 605 605
605 21 605 605 605 31 6 605 605 605 605 605 33 18 605 605 18 605 605 0 605 605 605 605 42 605 605 605 605 22 605 605 20 605 23 605 605 605 605 605 605 605 605 605 605 605 605 605 605 605 605 605 23 605 605 605 605 605 605 605 605 605 605 605 605 37 3 16 605 31 605 35 605 605 9
605 605 605 21 39 605 605 54 605 16 605 52 605 605 605 21 605 47 13 605 0 605 605 605 605 605 605 605 605 605 605 605 605 605 605 605 605 605 43 12 605 605 605 605 605 605 605 605 605 605 605 605 605 605 605 605 32 605 605 605 19 605 30 40 605 605 605 605 605 605 605 605 605 44 605
38 605 605 605 605 605 605 605 605 605 16 605 605 605 20 605 605 605 605 605 605 0 15 605 11 605 605 605 605 605 605 605 27 24 605 605 605 18 605 605 31 605 36 605 605 605 605 605 33 605 605 26 24 605 605 27 605 25 5 605 605 19 605 605 18 605 48 605 605 17 12 605 20 605 605
605 605 29 605 605 605 26 605 605 605 27 605 605 605 605 605 27 605 605 605 605 15 0 605 11 605 16 605 605 605 605 605 13 15 605 605 605 605 605 605 605 605 605 605 605 605 605 605 605 605 605 30 10 605 605 605 605 605 13 605 605 605 605 605 29 605 33 605 605 4 4 605 605 605 27
20 605 605 605 605 605 605 19 22 605 605 21 605 605 605 605 605 39 605 605 605 605 605 0 605 30 605 605 16 605 605 605 605 605 605 605 24 605 605 605 19 605 20 3 605 605 8 26 605 605 605 26 605 27 605 53 605 31 605 605 605 605 605 605 605 605 605 605 605 605 605 605 29 605 605
605 605 605 605 605 605 36 605 605 605 17 605 605 605 24 605 605 605 605 42 605 11 11 605 0 605 26 605 605 605 605 605 22 25 605 605 605 28 605 605 605 605 605 605 605 605 605 605 38 605 605 35 21 605 605 32 605 35 12 605 605 25 605 605 28 605 42 605 605 11 12 605 31 605 37
39 605 605 605 605 605 605 25 8 605 605 605 605 605 605 605 605 31 605 605 605 605 605 30 605 0 605 605 14 605 605 605 605 605 605 605 605 62 605 605 49 605 41 32 605 605 30 10 605 8 605 605 605 605 6 73 605 54 605 605 605 73 605 605 58 605 605 605 605 605 605 605 56 605 605
605 605 13 605 605 23 21 605 605 605 605 605 605 19 605 605 13 605 605 605 605 605 16 605 26 605 0 605 605 605 24 605 16 2 10 605 605 605 605 605 605 605 605 605 605 28 605 605 15 605 27 23 10 605 605 605 605 605 21 28 605 605 605 605 605 605 605 34 10 19 15 33 605 605 19
605 605 605 32 18 21 605 605 605 29 605 605 34 605 605 28 605 605 39 605 605 605 605 605 605 605 605 0 605 605 19 6 605 605 605 29 605 605 605 35 605 7 605 605 32 15 605 605 605 605 28 605 605 605 605 605 37 605 605 17 605 605 21 605 605 13 605 38 605 605 605 14 605 605 605
29 605 605 605 605 605 605 16 6 605 605 18 605 605 605 605 605 31 605 605 605 605 605 16 605 14 605 605 0 605 605 605 605 605 605 605 37 51 28 605 35 605 30 18 605 605 17 11 605 21 605 605 605 31 19 63 605 43 605 605 605 605 605 605 605 605 605 605 605 605 605 605 43 26 605
605 1 605 605 51 605 28 605 605 605 605 605 14 605 605 605 605 605 605 22 605 605 605 605 605 605 605 605 605 0 605 605 605 605 605 605 605 605 605 605 605 37 605 605 16 605 605 605 605 605 605 605 605 605 605 605 605 605 605 605 605 605 605 605 605 33 23 10 605 605 605 33 605 605 27
605 605 13 605 605 5 605 605 605 605 605 605 605 18 605 605 605 605 605 605 605 605 605 605 605 605 24 19 605 605 0 13 605 26 17 20 605 605 605 605 605 18 605 605 605 4 605 605 16 605 16 31 605 605 605 605 605 605 605 5 605 605 30 605 605 605 605 32 15 605 605 12 605 605 605
605 605 26 33 24 16 605 605 605 32 605 605 35 28 605 30 605 605 44 605 605 605 605 605 605 605 605 6 605 605 13 0 605 605 605 25 31 605 605 605 605 8 605 605 33 10 605 605 28 605 23 605 605 40 605 605 36 605 605 11 605 605 21 605 605 11 605 37 28 605 605 11 605 605 605
605 40 605 605 605 605 14 605 605 605 39 605 605 24 605 605 19 605 605 20 605 27 13 605 22 605 16 605 605 605 605 605 0 16 21 605 605 605 605 605 605 605 605 605 605 605 605 605 605 605 605 605 6 605 605 605 605 605 605 605 605 605 605 605 605 605 21 33 605 11 16 605 605 605 15
605 605 14 605 605 24 605 605 605 605 40 605 605 21 605 605 15 605 605 605 605 24 15 605 25 605 2 605 605 605 26 605 16 0 12 33 33 37 605 605 29 605 605 605 605 30 605 605 15 605 27 22 10 605 605 605 605 41 19 29 605 605 605 605 30 605 605 605 12 18 13 605 31 605 20
605 605 10 605 605 14 605 605 605 605 605 605 605 10 605 605 6 605 605 23 605 605 605 605 605 605 10 605 605 605 17 605 21 12 0 605 605 605 605 605 605 605 605 605 605 21 605 605 15 605 605 605 17 605 605 605 605 605 605 605 605 605 605 605 605 605 605 26 2 605 25 23 605 605 15
605 605 21 31 46 605 605 33 605 37 605 33 605 605 605 32 605 605 605 605 605 605 605 605 605 605 605 29 605 605 20 25 605 33 605 0 6 605 37 41 23 33 605 30 605 20 26 605 18 605 6 23 605 22 605 605 25 605 605 17 43 605 24 25 605 605 605 605 605 605 605 31 38 29 605
37 605 24 35 605 605 605 30 605 605 605 29 605 605 605 605 605 46 605 605 605 605 605 24 605 605 605 605 37 605 605 31 605 33 605 6 0 605 35 605 18 605 36 24 605 605 21 605 19 605 10 19 605 21 605 605 26 41 41 22 605 605 28 24 34 605 605 605 605 605 605 605 33 27 605
23 605 605 605 605 605 605 605 605 605 21 605 605 605 16 605 605 605 605 605 605 18 605 605 28 62 605 605 51 605 605 605 605 37 605 605 605 0 605 605 27 605 21 36 605 605 605 605 605 605 605 26 605 605 68 16 605 8 20 605 605 13 605 605 10 605 65 605 605 605 29 605 11 605 605
605 605 605 28 605 605 605 13 605 605 605 11 605 605 605 33 605 11 54 605 43 605 605 605 605 605 605 605 28 605 605 605 605 605 605 37 35 605 0 36 605 605 605 605 605 605 25 24 605 33 605 605 605 15 605 605 18 605 605 605 24 605 36 12 605 605 605 605 605 605 605 605 605 8 605
605 605 605 10 34 605 605 605 605 6 605 43 605 605 605 9 605 43 18 605 12 605 605 605 605 605 605 35 605 605 605 605 605 605 605 41 605 605 36 0 605 605 605 605 605 605 605 605 605 605 605 605 605 605 605 605 22 605 605 605 16 605 18 31 605 605 605 605 605 605 605 605 605 605 605
22 605 605 605 605 605 605 36 605 605 605 37 605 605 605 605 605 605 605 605 605 31 605 19 605 49 605 605 35 605 605 605 605 29 605 23 18 27 605 605 0 605 20 18 605 605 23 605 22 605 22 7 605 35 605 43 42 23 28 34 605 605 605 605 17 605 605 605 605 605 605 605 16 38 605
605 605 605 605 20 18 605 605 605 36 605 605 27 27 605 36 605 605 45 605 605 605 605 605 605 605 605 7 605 37 18 8 605 605 605 33 605 605 605 605 605 0 605 605 25 15 605 605 605 605 605 605 605 605 605 605 605 605 605 18 605 605 28 605 605 6 605 31 605 605 605 8 605 605 38
2 605 605 605 605 605 605 605 36 605 605 605 605 605 605 605 605 605 605 605 605 36 605 20 605 41 605 605 30 605 605 605 605 605 605 605 36 21 605 605 20 605 0 18 605 605 28 605 605 605 42 26 605 46 47 34 605 13 35 605 605 33 605 605 18 605 605 605 605 605 605 605 16 605 605
18 605 605 605 605 605 605 22 24 605 605 24 605 605 605 605 605 605 605 605 605 605 605 3 605 32 605 605 18 605 605 605 605 605 605 30 24 36 605 605 18 605 18 0 605 605 10 28 605 605 33 25 605 29 37 50 605 29 605 605 605 605 605 605 29 605 605 605 605 605 605 605 27 605 605
605 17 605 605 35 30 605 605 605 59 605 605 3 27 605 605 605 605 605 605 605 605 605 605 605 605 605 32 605 16 605 33 605 605 605 605 605 605 605 605 605 25 605 605 0 34 605 605 605 605 605 605 605 605 605 605 605 605 605 605 605 605 52 605 605 22 35 17 605 605 605 24 605 605 34
605 605 17 605 33 8 605 605 605 605 605 605 605 21 605 605 605 605 605 605 605 605 605 605 605 605 28 15 605 605 4 10 605 30 21 20 605 605 605 605 605 15 605 605 34 0 605 605 19 605 16 605 605 605 605 605 38 605 605 3 605 605 26 605 605 13 605 33 19 605 605 11 605 605 32
28 605 605 605 605 605 605 13 22 605 605 14 605 605 605 605 605 33 605 605 605 605 605 8 605 30 605 605 17 605 605 605 605 605 605 26 21 605 25 605 23 605 28 10 605 605 0 24 38 36 30 29 605 19 605 605 28 38 605 43 44 605 40 20 37 605 605 605 605 605 605 605 35 18 605
40 605 605 605 605 605 605 16 6 605 605 18 605 605 605 605 605 23 605 605 605 605 605 26 605 10 605 605 11 605 605 605 605 605 605 605 605 605 24 605 605 605 605 28 605 605 24 0 605 12 605 605 605 32 11 74 605 54 605 605 48 605 605 605 605 605 605 605 605 605 605 605 605 25 605
605 605 6 605 605 18 605 605 605 605 605 605 605 605 605 605 21 605 605 605 605 33 605 605 38 605 15 605 605 605 16 28 605 15 15 18 19 605 605 605 22 605 605 605 605 19 38 605 0 605 12 16 26 40 605 605 43 605 29 17 605 605 38 605 31 605 605 605 13 605 27 605 31 605 605
47 605 605 605 605 605 605 28 14 605 605 29 605 605 605 605 605 28 605 605 605 605 605 605 605 8 605 605 21 605 605 605 605 605 605 605 605 605 33 605 605 605 605 605 605 605 36 12 605 0 605 605 605 605 2 81 605 605 605 605 605 605 605 605 605 605 605 605 605 605 605 605 605 605 605
605 605 15 36 605 20 605 605 605 605 605 38 605 605 605 605 605 605 605 605 605 605 605 605 605 605 27 28 605 605 16 23 605 27 605 6 10 605 605 605 22 605 42 33 605 16 30 605 12 605 0 20 605 28 605 605 31 605 39 13 605 605 27 31 36 605 605 605 605 605 38 605 36 605 605
28 605 21 605 605 605 605 605 605 605 41 42 605 605 605 605 605 605 605 605 605 26 30 26 35 605 23 605 605 605 31 605 605 22 605 23 19 26 605 605 7 605 26 25 605 605 29 605 16 605 20 0 31 39 605 43 45 25 22 31 605 37 46 605 16 605 605 605 28 605 26 605 16 605 605
605 605 23 605 605 31 17 605 605 605 37 605 605 23 605 605 17 605 605 23 605 24 10 605 21 605 10 605 605 605 605 605 6 10 17 605 605 605 605 605 605 605 605 605 605 605 605 605 26 605 605 31 0 605 605 605 605 605 21 37 605 605 605 605 35 605 24 35 18 11 12 40 605 605 17
605 605 605 22 605 605 605 16 605 605 605 14 605 605 605 26 605 26 605 605 605 605 605 27 605 605 605 605 31 605 605 40 605 605 605 22 21 605 15 605 35 605 46 29 605 605 19 32 40 605 28 39 605 0 605 605 9 605 605 37 26 605 24 3 605 605 605 605 605 605 605 605 50 8 605
45 605 605 605 605 605 605 27 13 605 605 29 605 605 605 605 605 29 605 605 605 605 605 605 605 6 605 605 19 605 605 605 605 605 605 605 605 68 605 605 605 605 47 37 605 605 605 11 605 2 605 605 605 605 0 78 605 60 605 605 605 605 605 605 605 605 605 605 605 605 605 605 605 605 605
34 605 605 605 605 605 605 605 68 605 17 605 605 605 9 605 605 92 605 605 605 27 605 53 32 73 605 605 63 605 605 605 605 605 605 605 605 16 605 605 43 605 34 50 605 605 605 74 605 81 605 43 605 605 78 0 605 21 30 605 605 8 605 605 27 605 605 605 605 605 605 605 28 605 605
605 605 605 12 46 605 605 24 605 23 605 22 605 605 605 17 605 29 40 605 32 605 605 605 605 605 605 37 605 605 605 36 605 605 605 25 26 605 18 22 42 605 605 605 605 38 28 605 43 605 31 45 605 9 605 605 0 605 605 36 19 605 17 9 605 605 605 605 605 605 605 605 605 14 605
14 605 605 605 605 605 605 605 49 605 29 605 605 605 24 605 605 605 605 605 605 25 605 31 35 54 605 605 43 605 605 605 605 41 605 605 41 8 605 605 23 605 13 29 605 605 38 54 605 605 605 25 605 605 60 21 605 0 26 605 605 20 605 605 11 605 605 605 605 605 605 605 10 605 605
605 605 30 605 605 605 605 605 605 605 21 605 605 605 24 605 34 605 605 605 605 5 13 605 12 605 21 605 605 605 605 605 605 19 605 605 41 20 605 605 28 605 35 605 605 605 605 605 29 605 39 22 21 605 605 30 605 26 0 45 605 23 605 605 17 605 45 605 605 16 9 605 19 605 605
605 605 15 37 35 10 605 605 605 38 605 605 605 23 605 35 605 605 605 605 605 605 605 605 605 605 28 17 605 605 5 11 605 29 605 17 22 605 605 605 34 18 605 605 605 3 43 605 17 605 13 31 37 37 605 605 36 605 45 0 51 605 25 39 605 16 605 605 19 605 605 14 605 605 605
605 605 605 15 49 605 605 36 605 21 605 33 605 605 605 19 605 28 31 605 19 605 605 605 605 605 605 605 605 605 605 605 605 605 605 43 605 605 24 16 605 605 605 605 605 605 44 48 605 605 605 605 605 26 605 605 19 605 605 51 0 605 27 24 605 605 605 605 605 605 605 605 605 26 605
34 605 605 605 605 605 605 605 605 605 11 605 605 605 4 605 605 605 605 605 605 19 605 605 25 73 605 605 605 605 605 605 605 605 605 605 605 13 605 605 605 605 33 605 605 605 605 605 605 605 605 37 605 605 605 8 605 20 23 605 605 0 605 605 22 605 66 605 605 35 31 605 23 605 605
605 605 39 12 29 34 605 605 605 14 605 605 55 605 605 10 605 46 31 605 30 605 605 605 605 605 605 21 605 605 30 21 605 605 605 24 28 605 36 18 605 28 605 605 52 26 40 605 38 605 27 46 605 24 605 605 17 605 605 25 27 605 0 25 605 32 605 605 605 605 605 32 605 31 605
605 605 605 21 605 605 605 15 605 605 605 13 605 605 605 605 605 24 605 605 40 605 605 605 605 605 605 605 605 605 605 605 605 605 605 25 24 605 12 31 605 605 605 605 605 605 20 605 605 605 31 605 605 3 605 605 9 605 605 39 24 605 25 0 605 605 605 605 605 605 605 605 605 6 605
21 605 35 605 605 605 605 605 605 605 28 605 605 605 25 605 605 605 605 605 605 18 29 605 28 58 605 605 605 605 605 605 605 30 605 605 34 10 605 605 17 605 18 29 605 605 37 605 31 605 36 16 35 605 605 27 605 11 17 605 605 22 605 605 0 605 60 605 605 605 25 605 2 605 605
605 33 605 605 26 13 605 605 605 605 605 605 25 21 605 605 26 605 605 37 605 605 605 605 605 605 605 13 605 33 605 11 605 605 605 605 605 605 605 605 605 6 605 605 22 13 605 605 605 605 605 605 605 605 605 605 605 605 605 16 605 605 32 605 605 0 605 26 25 605 605 3 605 605 32
605 22 605 605 605 605 8 605 605 605 59 605 34 21 66 605 21 605 605 3 605 48 33 605 42 605 605 605 605 23 605 605 21 605 605 605 605 65 605 605 605 605 605 605 35 605 605 605 605 605 605 605 24 605 605 605 605 605 45 605 605 66 605 605 60 605 0 18 605 32 36 38 605 605 12
605 9 34 605 48 26 19 605 605 605 605 605 17 16 605 605 21 605 605 16 605 605 605 605 605 605 34 38 605 10 32 37 33 605 26 605 605 605 605 605 605 31 605 605 17 33 605 605 605 605 605 605 35 605 605 605 605 605 605 605 605 605 605 605 605 26 18 0 27 44 605 26 605 605 18
605 605 8 605 605 13 605 605 605 605 605 605 605 11 605 605 7 605 605 605 605 605 605 605 605 605 10 605 605 605 15 28 605 12 2 605 605 605 605 605 605 605 605 605 605 19 605 605 13 605 605 28 18 605 605 605 605 605 605 19 605 605 605 605 605 25 605 27 0 605 25 22 605 605 17
605 605 605 605 605 605 25 605 605 605 28 605 605 34 605 605 28 605 605 31 605 17 4 605 11 605 19 605 605 605 605 605 11 18 605 605 605 605 605 605 605 605 605 605 605 605 605 605 605 605 605 605 11 605 605 605 605 605 16 605 605 35 605 605 605 605 32 44 605 0 8 605 605 605 26
605 605 27 605 605 605 605 605 605 605 27 605 605 605 605 605 27 605 605 605 605 12 4 605 12 605 15 605 605 605 605 605 16 13 25 605 605 29 605 605 605 605 605 605 605 605 605 605 27 605 38 26 12 605 605 605 605 605 9 605 605 31 605 605 25 605 36 605 25 8 0 605 27 605 28
605 605 23 605 29 10 34 605 605 605 605 605 26 19 605 605 23 605 605 35 605 605 605 605 605 605 33 14 605 33 12 11 605 605 23 31 605 605 605 605 605 8 605 605 24 11 605 605 605 605 605 605 40 605 605 605 605 605 605 14 605 605 32 605 605 3 38 26 22 605 605 0 605 605 30
19 605 605 605 605 605 605 605 605 605 605 605 605 605 605 605 605 605 605 605 605 20 605 29 31 56 605 605 43 605 605 605 605 31 605 38 33 11 605 605 16 605 16 27 605 605 35 605 31 605 36 16 605 50 605 28 605 10 19 605 605 23 605 605 2 605 605 605 605 605 27 605 0 605 605
605 605 605 26 605 605 605 10 605 605 605 8 605 605 605 605 605 19 605 605 44 605 605 605 605 605 605 605 26 605 605 605 605 605 605 29 27 605 8 605 38 605 605 605 605 605 18 25 605 605 605 605 605 8 605 605 14 605 605 605 26 605 31 6 605 605 605 605 605 605 605 605 605 0 605
605 26 25 605 605 24 4 605 605 605 605 605 605 12 605 605 10 605 605 9 605 605 27 605 37 605 19 605 605 27 605 605 15 20 15 605 605 605 605 605 605 38 605 605 34 32 605 605 605 605 605 605 17 605 605 605 605 605 605 605 605 605 605 605 605 32 12 18 17 26 28 30 605 605 0
EOF
